
;this file is automatically generated: Tue Oct 27 10:35:00 CST 2020

;declarations generated

(declare-fun obj_42859842_d1ad_4bb7_9414_93253008ad43 ( Int) Int)
(declare-fun oclExcludes ( Int Int) Bool)
(declare-fun Cardinality ( Int) Int)
(declare-fun type_4af35ed4_b8d3_4fa1_9e79_9a7d6f916e35_Class8 ( Int) Bool)
(declare-fun oclSelect ( Int Bool) Int)
(declare-fun class25_Class25IntAttr2 ( Int) Int)
(declare-fun Enum0 ( Int) Int)
(declare-fun Enum1 ( Int) Int)
(declare-fun Enum2 ( Int) Int)
(declare-fun type_4af35ed4_b8d3_4fa1_9e79_9a7d6f916e35_Class24 ( Int) Bool)
(declare-fun type_4af35ed4_b8d3_4fa1_9e79_9a7d6f916e35_Class25 ( Int) Bool)
(declare-fun container_ ( Int) Int)
(declare-fun type_4af35ed4_b8d3_4fa1_9e79_9a7d6f916e35_Class19 ( Int) Bool)
(declare-fun type_4af35ed4_b8d3_4fa1_9e79_9a7d6f916e35_Class16 ( Int) Bool)
(declare-fun oclIncludes ( Int Int) Bool)
(declare-fun ObjAt ( Int Int) Int)

;formula(s) generated
(assert (forall ((p Int)) (=> ( type_4af35ed4_b8d3_4fa1_9e79_9a7d6f916e35_Class25 p )  (and (>= ( Enum2 ( obj_42859842_d1ad_4bb7_9414_93253008ad43 p )  )  0) (<= ( Enum2 ( obj_42859842_d1ad_4bb7_9414_93253008ad43 p )  )  6)))))
(assert (forall ((p Int)) (=> ( type_4af35ed4_b8d3_4fa1_9e79_9a7d6f916e35_Class25 p )  (and (>= ( Enum2 ( obj_42859842_d1ad_4bb7_9414_93253008ad43 p )  )  0) (<= ( Enum2 ( obj_42859842_d1ad_4bb7_9414_93253008ad43 p )  )  6)))))
(assert (! (forall ((v Int)) (=> (and (and (and (and ( type_4af35ed4_b8d3_4fa1_9e79_9a7d6f916e35_Class25 v )  ( type_4af35ed4_b8d3_4fa1_9e79_9a7d6f916e35_Class24 v ) ) ( type_4af35ed4_b8d3_4fa1_9e79_9a7d6f916e35_Class16 v ) ) ( type_4af35ed4_b8d3_4fa1_9e79_9a7d6f916e35_Class8 v ) ) ( type_4af35ed4_b8d3_4fa1_9e79_9a7d6f916e35_Class19 v ) ) (not (= ( Enum2 ( obj_42859842_d1ad_4bb7_9414_93253008ad43 v )  )  6) ))):named l0))
(assert (! (forall ((v Int)) (=> (and (and (and (and ( type_4af35ed4_b8d3_4fa1_9e79_9a7d6f916e35_Class25 v )  ( type_4af35ed4_b8d3_4fa1_9e79_9a7d6f916e35_Class24 v ) ) ( type_4af35ed4_b8d3_4fa1_9e79_9a7d6f916e35_Class16 v ) ) ( type_4af35ed4_b8d3_4fa1_9e79_9a7d6f916e35_Class8 v ) ) ( type_4af35ed4_b8d3_4fa1_9e79_9a7d6f916e35_Class19 v ) ) (or (= ( Enum2 ( obj_42859842_d1ad_4bb7_9414_93253008ad43 v )  )  2) (or (forall ((v Int)) (=> (and (and (and (and ( type_4af35ed4_b8d3_4fa1_9e79_9a7d6f916e35_Class25 v )  ( type_4af35ed4_b8d3_4fa1_9e79_9a7d6f916e35_Class24 v ) ) ( type_4af35ed4_b8d3_4fa1_9e79_9a7d6f916e35_Class16 v ) ) ( type_4af35ed4_b8d3_4fa1_9e79_9a7d6f916e35_Class8 v ) ) ( type_4af35ed4_b8d3_4fa1_9e79_9a7d6f916e35_Class19 v ) ) (not (= ( Enum2 ( obj_42859842_d1ad_4bb7_9414_93253008ad43 v )  )  1) ))) (forall ((v Int)) (=> (and (and (and (and ( type_4af35ed4_b8d3_4fa1_9e79_9a7d6f916e35_Class25 v )  ( type_4af35ed4_b8d3_4fa1_9e79_9a7d6f916e35_Class24 v ) ) ( type_4af35ed4_b8d3_4fa1_9e79_9a7d6f916e35_Class16 v ) ) ( type_4af35ed4_b8d3_4fa1_9e79_9a7d6f916e35_Class8 v ) ) ( type_4af35ed4_b8d3_4fa1_9e79_9a7d6f916e35_Class19 v ) ) (<= ( class25_Class25IntAttr2 ( obj_42859842_d1ad_4bb7_9414_93253008ad43 v )  )  16))))))):named l1))
(assert (exists ((o Int)) (and (and (and (and ( type_4af35ed4_b8d3_4fa1_9e79_9a7d6f916e35_Class25 ( obj_42859842_d1ad_4bb7_9414_93253008ad43 o )  )  ( type_4af35ed4_b8d3_4fa1_9e79_9a7d6f916e35_Class24 ( obj_42859842_d1ad_4bb7_9414_93253008ad43 o )  ) ) ( type_4af35ed4_b8d3_4fa1_9e79_9a7d6f916e35_Class16 ( obj_42859842_d1ad_4bb7_9414_93253008ad43 o )  ) ) ( type_4af35ed4_b8d3_4fa1_9e79_9a7d6f916e35_Class8 ( obj_42859842_d1ad_4bb7_9414_93253008ad43 o )  ) ) ( type_4af35ed4_b8d3_4fa1_9e79_9a7d6f916e35_Class19 ( obj_42859842_d1ad_4bb7_9414_93253008ad43 o )  ) )))

 ;end of formula 